NAME : instances/clustered-mixed-tsp/instance-1.tsp
COMMENT : No Comment
TYPE : TSP
DIMENSION: 45
EDGE_WEIGHT_TYPE : EUC_2D
NODE_COORD_SECTION
1 1618 503 
2 980 729 
3 626 1164 
4 415 487 
5 446 436 
6 42 1523 
7 622 1126 
8 1949 715 
9 971 768 
10 178 1446 
11 1923 713 
12 1303 239 
13 598 1962 
14 858 748 
15 948 826 
16 1525 410 
17 384 533 
18 788 1337 
19 660 1218 
20 451 513 
21 898 832 
22 369 629 
23 653 1159 
24 879 1477 
25 985 739 
26 756 1465 
27 912 765 
28 923 1452 
29 1497 416 
30 788 1351 
31 841 830 
32 996 886 
33 841 819 
34 362 479 
35 1205 334 
36 793 1456 
37 409 447 
38 748 1369 
39 914 753 
40 1617 447 
41 743 1424 
42 1900 784 
43 602 1287 
44 1595 572 
45 544 1116 
EOF
